p cnf 110 92
c ind 1 2 3 4 5 6 7 8 0
-1 9 0
-3 10 0
-5 9 0
-7 10 0
-2 11 0
-4 12 0
-6 11 0
-8 12 0
-1 -9 13 0
-1 -10 14 0
-3 -9 15 0
-3 -10 16 0
-5 -9 17 0
-5 -10 18 0
-7 -9 19 0
-7 -10 20 0
-2 -11 13 0
-2 -12 14 0
-4 -11 15 0
-4 -12 16 0
-6 -11 17 0
-6 -12 18 0
-8 -11 19 0
-8 -12 20 0
-1 1 -13 0
-3 1 -14 0
-1 3 -15 0
-3 3 -16 0
-5 5 -17 0
-7 5 -18 0
-5 7 -19 0
-7 7 -20 0
-2 2 -13 0
-4 2 -14 0
-2 4 -15 0
-4 4 -16 0
-6 6 -17 0
-8 6 -18 0
-6 8 -19 0
-8 8 -20 0
1 2 0
-1 -2 0
3 4 0
-3 -4 0
5 6 0
-5 -6 0
7 8 0
-7 -8 0
-100 -1 7 0
-100 -2 0
-101 -1 8 0
-101 -2 7 0
100 101 0
100 102 0
-102 103 104 0
-102 103 105 0
-105 106 107 0
-105 106 108 0
-108 109 110 0
-103 -3 5 0
-103 -4 0
-104 -3 6 0
-104 -4 5 0
100 101 0
100 102 0
-102 103 104 0
-102 103 105 0
-105 106 107 0
-105 106 108 0
-108 109 110 0
-106 -5 3 0
-106 -6 0
-107 -5 4 0
-107 -6 3 0
100 101 0
100 102 0
-102 103 104 0
-102 103 105 0
-105 106 107 0
-105 106 108 0
-108 109 110 0
-109 -7 1 0
-109 -8 0
-110 -7 2 0
-110 -8 1 0
100 101 0
100 102 0
-102 103 104 0
-102 103 105 0
-105 106 107 0
-105 106 108 0
-108 109 110 0
